100 997
294 706 616 1192 849 437 657 1015 646 622 991 559 867 798 207 744 534 966 1194 1093 833 331 628 900 817 1074 1020 619 994 396 1197 316 1108 739 907 769 737 1131 1026 687 972 713 281 1143 258 503 964 736 924 989 679 342 539 841 396 694 366 1024 408 911 1000 514 489 601 666 889 1033 425 444 1049 313 579 561 265 786 886 486 1089 324 691 1091 390 381 414 217 672 618 619 556 882 606 401 585 1152 700 394 937 624 1192 424 
94 506 416 992 649 237 457 815 446 422 791 359 667 598 7 544 334 766 994 893 633 131 428 700 617 874 720 419 794 196 997 116 908 539 707 569 537 931 726 487 772 513 81 943 58 303 764 536 724 789 479 142 339 641 196 494 66 824 208 711 800 314 289 401 466 689 833 225 244 849 113 379 361 65 486 686 286 889 24 491 891 90 181 214 17 472 418 419 356 682 306 201 385 952 500 194 737 324 992 224 
